experiments/knapsack_bounded/knapsack_bounded_25_1.mps
NAME
ROWS
 N  OBJ
 L  c1
 L  c2
 L  c3
 L  c4
 L  c5
 L  c6
 L  c7
 L  c8
 L  c9
 L  c10
 L  c11
 L  c12
 L  c13
 L  c14
 L  c15
 L  c16
 L  c17
 L  c18
 L  c19
 L  c20
 L  c21
 L  c22
 L  c23
 L  c24
 L  c25
 L  c26
COLUMNS
    MARKER    'MARKER'                 'INTORG'
    x[1]      c1        141
    x[1]      c2        1
    x[1]      OBJ       -990
    x[2]      c1        76
    x[2]      c3        1
    x[2]      OBJ       -989
    x[3]      c1        155
    x[3]      c4        1
    x[3]      OBJ       -187
    x[4]      c1        455
    x[4]      c5        1
    x[4]      OBJ       -935
    x[5]      c1        95
    x[5]      c6        1
    x[5]      OBJ       -201
    x[6]      c1        783
    x[6]      c7        1
    x[6]      OBJ       -370
    x[7]      c1        695
    x[7]      c8        1
    x[7]      OBJ       -969
    x[8]      c1        41
    x[8]      c9        1
    x[8]      OBJ       -258
    x[9]      c1        668
    x[9]      c10       1
    x[9]      OBJ       -788
    x[10]     c1        855
    x[10]     c11       1
    x[10]     OBJ       -867
    x[11]     c1        439
    x[11]     c12       1
    x[11]     OBJ       -969
    x[12]     c1        957
    x[12]     c13       1
    x[12]     OBJ       -319
    x[13]     c1        37
    x[13]     c14       1
    x[13]     OBJ       -340
    x[14]     c1        115
    x[14]     c15       1
    x[14]     OBJ       -141
    x[15]     c1        938
    x[15]     c16       1
    x[15]     OBJ       -857
    x[16]     c1        753
    x[16]     c17       1
    x[16]     OBJ       -422
    x[17]     c1        216
    x[17]     c18       1
    x[17]     OBJ       -970
    x[18]     c1        113
    x[18]     c19       1
    x[18]     OBJ       -611
    x[19]     c1        271
    x[19]     c20       1
    x[19]     OBJ       -238
    x[20]     c1        464
    x[20]     c21       1
    x[20]     OBJ       -263
    x[21]     c1        26
    x[21]     c22       1
    x[21]     OBJ       -785
    x[22]     c1        906
    x[22]     c23       1
    x[22]     OBJ       -143
    x[23]     c1        989
    x[23]     c24       1
    x[23]     OBJ       -540
    x[24]     c1        373
    x[24]     c25       1
    x[24]     OBJ       -20
    x[25]     c1        532
    x[25]     c26       1
    x[25]     OBJ       -593
    MARKER    'MARKER'                 'INTEND'
RHS
    rhs       c1        5546
    rhs       c2        3
    rhs       c3        8
    rhs       c4        1
    rhs       c5        1
    rhs       c6        8
    rhs       c7        5
    rhs       c8        10
    rhs       c9        6
    rhs       c10       4
    rhs       c11       5
    rhs       c12       5
    rhs       c13       2
    rhs       c14       7
    rhs       c15       1
    rhs       c16       10
    rhs       c17       4
    rhs       c18       10
    rhs       c19       5
    rhs       c20       5
    rhs       c21       2
    rhs       c22       5
    rhs       c23       6
    rhs       c24       2
    rhs       c25       7
    rhs       c26       9
RANGES
BOUNDS
 LO bounds    x[1]      0
 PL bounds    x[1]
 LO bounds    x[2]      0
 PL bounds    x[2]
 LO bounds    x[3]      0
 PL bounds    x[3]
 LO bounds    x[4]      0
 PL bounds    x[4]
 LO bounds    x[5]      0
 PL bounds    x[5]
 LO bounds    x[6]      0
 PL bounds    x[6]
 LO bounds    x[7]      0
 PL bounds    x[7]
 LO bounds    x[8]      0
 PL bounds    x[8]
 LO bounds    x[9]      0
 PL bounds    x[9]
 LO bounds    x[10]     0
 PL bounds    x[10]
 LO bounds    x[11]     0
 PL bounds    x[11]
 LO bounds    x[12]     0
 PL bounds    x[12]
 LO bounds    x[13]     0
 PL bounds    x[13]
 LO bounds    x[14]     0
 PL bounds    x[14]
 LO bounds    x[15]     0
 PL bounds    x[15]
 LO bounds    x[16]     0
 PL bounds    x[16]
 LO bounds    x[17]     0
 PL bounds    x[17]
 LO bounds    x[18]     0
 PL bounds    x[18]
 LO bounds    x[19]     0
 PL bounds    x[19]
 LO bounds    x[20]     0
 PL bounds    x[20]
 LO bounds    x[21]     0
 PL bounds    x[21]
 LO bounds    x[22]     0
 PL bounds    x[22]
 LO bounds    x[23]     0
 PL bounds    x[23]
 LO bounds    x[24]     0
 PL bounds    x[24]
 LO bounds    x[25]     0
 PL bounds    x[25]
ENDATA
